; benchmark generated from python API
(set-info :status unknown)
(declare-datatypes ((RealState 0)) (((RMk1 (rval1 Real)) (RMk2 (rval2 Real)))))
 (assert
 (forall ((|v11:0| Real) )(exists ((|v10:1_st| RealState) (val!2664 Real) )(forall ((|v9:2| Real) )(exists ((|v8:3_st| RealState) (val!2665 Real) )(forall ((|v7:4| Real) )(exists ((|v6:5_st| RealState) (val!2666 Real) )(forall ((|v5:6| Real) )(exists ((|v4:7_st| RealState) (val!2667 Real) )(forall ((|v3:8| Real) )(exists ((|v2:9_st| RealState) (val!2668 Real) )(forall ((|v1:10| Real) )(exists ((|v0:11_st| RealState) (val!2669 Real) )(let ((?x581 (rval2 |v8:3_st|)))
 (let ((?x2975 (- 19.0)))
 (let ((?x2227 (* ?x2975 ?x581)))
 (let ((?x2063 (+ (+ (* (- 6.0) (rval2 |v2:9_st|)) (* 18.0 (rval2 |v2:9_st|))) (* 16.0 ?x581))))
 (let ((?x991 (- 13.0)))
 (let ((?x1781 (+ (+ (+ (* (- 18.0) (rval2 |v0:11_st|)) (* 9.0 |v9:2|)) (* ?x2975 |v9:2|)) (* (- 16.0) (rval2 |v10:1_st|)))))
 (let ((?x2498 (+ (+ (+ (* (- 9.0) |v7:4|) (* 5.0 |v11:0|)) (* (- 15.0) |v9:2|)) (* 7.0 (rval2 |v6:5_st|)))))
 (let ((?x2637 (* 7.0 |v11:0|)))
 (let ((?x1222 (+ (+ (+ (* (- 16.0) |v7:4|) (* 2.0 ?x581)) (* ?x2975 (rval2 |v0:11_st|))) ?x2637)))
 (let (($x1542 (or (and (<= ?x1222 17.0) (<= ?x2498 1.0)) (or (<= ?x1781 ?x991) (<= (+ ?x2063 ?x2227) 10.0)))))
 (let ((?x2848 (- 8.0)))
 (let ((?x1763 (* 11.0 |v7:4|)))
 (let (($x2499 (<= (+ (+ (+ (* (- 9.0) |v11:0|) |v5:6|) (* (- 7.0) ?x581)) ?x1763) ?x2848)))
 (let ((?x1358 (* 4.0 |v5:6|)))
 (let ((?x355 (+ (+ (+ (* (- 3.0) (rval2 |v4:7_st|)) (* 14.0 (rval2 |v0:11_st|))) ?x1358) (* (- 15.0) (rval2 |v10:1_st|)))))
 (let ((?x1404 (- 2.0)))
 (let ((?x1867 (* 0.0 |v3:8|)))
 (let ((?x1152 (rval2 |v10:1_st|)))
 (let ((?x1764 (+ (+ (+ (* (- 1.0) (rval2 |v4:7_st|)) (* 20.0 (rval2 |v0:11_st|))) ?x1152) ?x1867)))
 (let ((?x347 (- 7.0)))
 (let ((?x1985 (rval2 |v0:11_st|)))
 (let ((?x46 (* 15.0 ?x1985)))
 (let (($x2144 (<= (+ (+ (+ (* 17.0 |v3:8|) (* 11.0 |v9:2|)) (* 2.0 |v3:8|)) ?x46) ?x347)))
 (let ((?x2978 (* 11.0 |v9:2|)))
 (let (($x65 (<= (+ (+ (+ (* (- 5.0) (rval2 |v2:9_st|)) (* 12.0 |v9:2|)) ?x2227) ?x2978) 10.0)))
 (let ((?x1163 (* 11.0 ?x581)))
 (let ((?x2804 (+ (+ (+ (* 10.0 |v3:8|) (* (- 1.0) |v5:6|)) (* 14.0 ?x1152)) ?x1163)))
 (let ((?x1265 (- 5.0)))
 (let ((?x1132 (* 19.0 |v1:10|)))
 (let ((?x746 (+ (+ (+ (* (- 6.0) |v3:8|) ?x581) (* (- 17.0) (rval2 |v4:7_st|))) ?x1132)))
 (let ((?x710 (- 11.0)))
 (let ((?x800 (+ (+ (+ (* 9.0 (rval2 |v2:9_st|)) (* ?x1265 |v11:0|)) (* (- 6.0) ?x1985)) ?x1985)))
 (let (($x414 (and (or (or (<= ?x800 ?x710) (<= ?x746 ?x1265)) (or (<= ?x2804 1.0) $x65)) (and $x2144 (and (<= ?x1764 ?x1404) (<= ?x355 15.0))))))
 (let ((?x1784 (- 3.0)))
 (let ((?x2509 (rval2 |v6:5_st|)))
 (let ((?x1390 (* 4.0 ?x2509)))
 (let ((?x1234 (+ (+ (+ (* (- 18.0) |v11:0|) (* 18.0 |v3:8|)) (* 5.0 (rval2 |v4:7_st|))) ?x1390)))
 (let ((?x2178 (+ (+ (+ (* (- 12.0) (rval2 |v2:9_st|)) ?x1763) (* 18.0 |v3:8|)) (* (- 4.0) ?x1985))))
 (let ((?x2681 (+ (+ (+ (* 18.0 ?x1985) (* 7.0 |v1:10|)) (* 3.0 (rval2 |v2:9_st|))) (* ?x2975 |v3:8|))))
 (let ((?x1845 (- 14.0)))
 (let ((?x203 (* 8.0 |v3:8|)))
 (let ((?x147 (+ (+ (+ (* 12.0 (rval2 |v4:7_st|)) (* (- 15.0) |v7:4|)) (* 10.0 |v7:4|)) ?x203)))
 (let (($x1294 (and (or (<= ?x147 ?x1845) (<= ?x2681 7.0)) (and (<= ?x2178 11.0) (<= ?x1234 ?x1784)))))
 (let ((?x2205 (- 6.0)))
 (let ((?x570 (* ?x2205 |v1:10|)))
 (let ((?x308 (+ (+ (+ (* (- 20.0) ?x581) (* ?x1784 ?x581)) (* 15.0 |v3:8|)) (* ?x2848 |v1:10|))))
 (let (($x3012 (and (<= ?x308 ?x1845) (<= (+ (+ (+ (* ?x710 |v5:6|) ?x570) (* 17.0 |v11:0|)) ?x570) 3.0))))
 (let ((?x1333 (* ?x1265 |v9:2|)))
 (let (($x1654 (<= (+ (+ (+ (* 6.0 |v7:4|) (* 14.0 ?x581)) (* 12.0 |v7:4|)) ?x1333) 2.0)))
 (let ((?x2280 (* 17.0 |v11:0|)))
 (let ((?x1988 (+ (+ (+ (* 5.0 (rval2 |v2:9_st|)) (* (- 9.0) |v1:10|)) (* 4.0 ?x581)) ?x2280)))
 (let ((?x953 (rval2 |v4:7_st|)))
 (let ((?x1576 (* 3.0 ?x953)))
 (let (($x2156 (<= (+ (+ (+ (* 5.0 ?x1985) (* ?x1404 ?x2509)) (* 0.0 ?x2509)) ?x1576) ?x1265)))
 (let ((?x2102 (+ (+ (+ (* 16.0 |v1:10|) (* (- 10.0) ?x1152)) (* 0.0 |v7:4|)) (* ?x1784 (rval2 |v2:9_st|)))))
 (let ((?x2766 (- 10.0)))
 (let ((?x635 (+ (+ (+ (* 10.0 (rval2 |v2:9_st|)) (* ?x2975 ?x953)) (* ?x1265 |v7:4|)) (* ?x1845 |v7:4|))))
 (let ((?x1782 (- 12.0)))
 (let (($x1698 (<= (+ (+ (+ (* 13.0 |v3:8|) ?x2509) (* 7.0 |v3:8|)) (* ?x1782 |v11:0|)) ?x1782)))
 (let ((?x632 (+ (+ (+ (* (- 20.0) |v5:6|) (* (- 1.0) ?x1152)) (* ?x2766 ?x1152)) (* (- 15.0) ?x2509))))
 (let (($x990 (or (<= ?x632 18.0) (and (and $x1698 (<= ?x635 ?x2766)) (and (<= ?x2102 20.0) $x2156)))))
 (let (($x2393 (or (and $x990 (and (and (or (<= ?x1988 4.0) $x1654) $x3012) $x1294)) (and $x414 (and $x2499 $x1542)))))
 (let ((?x2356 (rval2 |v2:9_st|)))
 (let ((?x1021 (* ?x1782 ?x2356)))
 (let (($x3011 (<= (+ (+ (+ (* ?x2975 |v1:10|) (* ?x1782 ?x1152)) (* (- 17.0) ?x1985)) ?x1021) 1.0)))
 (let ((?x1368 (* 2.0 ?x2356)))
 (let (($x1417 (<= (+ (+ (+ (* 20.0 ?x1985) (* 5.0 |v5:6|)) (* ?x347 |v7:4|)) ?x1368) ?x1404)))
 (let ((?x2686 (- 18.0)))
 (let ((?x1346 (+ (+ (+ (* 2.0 |v7:4|) (* ?x991 |v9:2|)) (* ?x2975 ?x953)) (* ?x991 |v5:6|))))
 (let (($x876 (<= (+ (+ (+ (* ?x2686 |v11:0|) (* 12.0 |v11:0|)) ?x1390) (* (- 9.0) ?x2509)) 2.0)))
 (let ((?x122 (* 14.0 |v11:0|)))
 (let (($x3034 (<= (+ (+ (+ (* ?x991 |v7:4|) (* 17.0 |v5:6|)) (* 3.0 ?x1152)) ?x122) 2.0)))
 (let ((?x762 (+ (+ (+ (* 5.0 |v9:2|) (* ?x1265 |v1:10|)) (* 11.0 |v1:10|)) (* (- 9.0) |v9:2|))))
 (let ((?x1343 (+ (+ (+ (* 15.0 |v5:6|) (* (- 20.0) ?x1985)) (* 18.0 ?x2509)) (* (- 1.0) ?x581))))
 (let (($x1443 (or (<= (+ (+ (+ |v7:4| (* ?x1404 ?x1985)) ?x1763) (* 15.0 |v3:8|)) 10.0) (<= ?x1343 8.0))))
 (let (($x2422 (and (or $x1443 (and (<= ?x762 ?x710) $x3034)) (and (and $x876 (<= ?x1346 ?x2686)) (or $x1417 $x3011)))))
 (let ((?x235 (* 18.0 |v9:2|)))
 (let (($x169 (<= (+ (+ (+ (* ?x2686 |v5:6|) (* (- 20.0) ?x581)) (* 4.0 |v7:4|)) ?x235) ?x1845)))
 (let (($x3027 (<= (+ (+ (+ (* ?x2975 ?x2509) (* 19.0 |v7:4|)) ?x1368) (* 4.0 ?x1152)) 11.0)))
 (let (($x928 (<= (+ (+ (+ (* 16.0 ?x1152) (* 0.0 |v5:6|)) (* 9.0 |v11:0|)) ?x1132) 7.0)))
 (let ((?x2024 (+ (+ (+ (* (- 17.0) |v5:6|) (* 5.0 ?x1152)) (* (- 20.0) ?x1152)) (* 13.0 ?x1152))))
 (let (($x406 (<= (+ (+ (+ |v3:8| (* (- 9.0) |v1:10|)) (* ?x2205 ?x581)) (* 12.0 |v9:2|)) 16.0)))
 (let (($x304 (<= (+ (+ (+ (* ?x2686 |v5:6|) (* ?x1404 |v11:0|)) ?x1333) (* 11.0 |v5:6|)) ?x1782)))
 (let ((?x2672 (- 1.0)))
 (let ((?x3038 (+ (+ (+ (* ?x2672 ?x2356) (* ?x2848 |v5:6|)) (* ?x347 ?x1985)) (* 15.0 ?x2356))))
 (let ((?x2006 (+ (+ (+ (* 10.0 |v5:6|) (* 13.0 ?x2356)) (* (- 16.0) |v1:10|)) (* ?x2766 ?x2509))))
 (let (($x1850 (<= (+ (+ (+ (* 5.0 |v3:8|) (* ?x991 ?x1985)) ?x2509) (* (- 4.0) |v1:10|)) ?x2766)))
 (let ((?x2543 (* ?x2672 ?x1152)))
 (let (($x2082 (<= (+ (+ (+ (* ?x2686 ?x2509) (* (- 17.0) |v5:6|)) (* 17.0 ?x2356)) ?x2543) ?x1845)))
 (let ((?x508 (+ (+ (+ (* 16.0 |v11:0|) (* 13.0 |v9:2|)) (* ?x2672 |v9:2|)) (* 13.0 |v11:0|))))
 (let (($x549 (<= (+ (+ (+ (* ?x2672 |v7:4|) (* 16.0 ?x953)) ?x1021) (* ?x1845 ?x581)) 15.0)))
 (let (($x1873 (<= (+ (+ (+ (* ?x2686 ?x1985) (* ?x1782 |v7:4|)) |v9:2|) (* 11.0 ?x2356)) ?x1404)))
 (let ((?x1467 (* 5.0 |v9:2|)))
 (let (($x48 (<= (+ (+ (+ (* ?x1404 |v7:4|) (* 20.0 |v7:4|)) (* 19.0 ?x1152)) ?x1467) ?x2848)))
 (let (($x241 (or (or $x48 (or (and $x1873 $x549) (<= ?x508 9.0))) (and (or (and $x2082 $x1850) (or (<= ?x2006 ?x1265) (<= ?x3038 ?x2672))) $x304))))
 (let (($x1215 (and $x241 (and (or $x406 (or (and (<= ?x2024 ?x991) $x928) (or $x3027 $x169))) $x2422))))
 (let (($x1423 (not (= |v0:11_st| (RMk1 val!2669)))))
 (let (($x937 (not (= |v2:9_st| (RMk1 val!2668)))))
 (let (($x1277 (not (= |v4:7_st| (RMk1 val!2667)))))
 (let (($x1151 (not (= |v6:5_st| (RMk1 val!2666)))))
 (let (($x1011 (not (= |v8:3_st| (RMk1 val!2665)))))
 (let (($x439 (not (= |v10:1_st| (RMk1 val!2664)))))
 (and $x439 $x1011 $x1151 $x1277 $x937 $x1423 (or $x1215 $x2393)))))))))))))))))))))))))))))))))))))))))))))))))))))))))))))))))))))))))))))))))))))))))))))))))))))))))
 )
 )
 )
 )
 )
 )
 )
 )
 )
 )
 )
 )
(check-sat)
